587057
568577
568577
567883
567883
563468
563468
563468
563468
557793
557793
540914
540914
530461
530461
527286
522568
522568
522568
522568
522306
522306
522306
522306
518303
518303
506456
506456
504012
504012
504012
504012
503443
496029
496029
485196
485196
481730
481730
481730
468384
468384
468384
468384
468384
468384
468384
464353
459116
459116
459116
459116
458092
458092
457553
455617
455617
455076
452114
442251
442251
433269
433269
433269
433269
433269
433269
433269
433269
433269
433269
433269
433269
433269
430567
430567
430567
423006
422177
422177
422177
422177
422177
422177
422177
422177
421584
421584
419965
412497
412497
412497
412497
408116
408116
408116
408116
408116
406452
406452
